NAME : optical-integer.pruned_global_4.tour
TYPE : TOUR
DIMENSION : 174
TOUR_SECTION
1
57
58
61
62
65
66
69
70
73
74
77
78
81
82
85
87
94
98
108
112
119
121
122
123
124
125
126
137
161
165
166
168
170
171
172
2
39
54
86
92
93
107
113
114
118
128
130
132
133
134
3
8
9
12
13
16
17
20
21
24
25
28
29
32
33
36
42
46
52
56
59
60
63
64
67
68
71
72
75
76
79
80
83
84
96
104
105
109
117
120
131
140
141
144
148
149
154
155
158
4
7
10
11
14
15
18
19
22
23
26
27
30
31
34
35
40
43
49
53
55
97
99
100
101
106
110
129
136
159
160
162
163
164
167
169
173
174
5
37
38
41
44
45
47
50
51
88
89
90
91
95
103
111
116
135
138
6
48
102
115
127
139
142
143
145
146
147
150
151
152
153
156
157
-1
EOF
